42	0

0	1	2
4	1	3
10	1	4
4	2	5	6
10	1	7
9	2	7	8
1	1	9
4	1	9
2	1	10
9	1	11
2	1	12
8	2	13	14
1	1	15
8	1	16
2	1	16
5	1	17
1	1	18
5	1	19
1	1	20
9	1	21
3	1	22
4	1	23
2	1	24
4	1	25
2	1	26
2	1	27
9	2	28	29
5	1	30
7	1	30
5	2	31	32
9	1	33
10	1	33
4	1	34
8	2	35	36
3	2	37	38
8	2	37	38
6	1	39
5	1	39
8	1	40
7	1	41
2	1	42
0	0
